//Dat File

outFile="MPVSBPP_SET1_IT200_ITV1_NT2_TS3_WT1_VT1_REP10";
m=200;
o=96;
p=3;
numVTypes=3;

demand = [11, 2, 10, 11, 1, 8, 1, 5, 2, 7, 4, 1, 3, 7, 8, 8, 8, 4, 10, 5, 1, 4, 1, 2, 11, 4, 2, 7, 4, 4, 11, 6, 6, 10, 5, 2, 11, 5, 6, 5, 11, 11, 9, 6, 9, 2, 6, 7, 2, 7, 2, 6, 5, 6, 5, 7, 10, 11, 11, 11, 6, 8, 9, 5, 11, 10, 10, 10, 8, 11, 3, 4, 7, 3, 8, 2, 9, 1, 3, 10, 7, 6, 10, 5, 6, 11, 3, 6, 4, 3, 4, 2, 1, 11, 3, 8, 1, 3, 2, 5, 10, 11, 2, 6, 3, 10, 3, 10, 1, 1, 9, 9, 7, 10, 1, 2, 4, 6, 6, 8, 6, 11, 4, 8, 9, 2, 6, 4, 2, 6, 9, 10, 1, 6, 5, 8, 11, 10, 10, 1, 2, 2, 5, 7, 8, 10, 11, 8, 9, 9, 12, 15, 13, 16, 18, 14, 13, 16, 17, 13, 18, 12, 18, 13, 18, 18, 19, 13, 15, 16, 17, 19, 18, 14, 16, 16, 19, 13, 17, 15, 13, 12, 16, 19, 18, 15, 13, 12, 19, 17, 13, 18, 12, 19, 14, 16, 14, 16, 12, 12];
Depot_Cap = [30000, 30000, 30000];
Tarif = [10, 3, 7];
VeicVolume = [100, 150, 200];
VeicCost = [100, 120, 140];
VeicType = [1, 1, 1, 1, 1, 1, 1, 1, 1, 1, 1, 1, 1, 1, 1, 1, 1, 1, 1, 1, 1, 1, 1, 1, 1, 1, 1, 1, 1, 1, 1, 1, 2, 2, 2, 2, 2, 2, 2, 2, 2, 2, 2, 2, 2, 2, 2, 2, 2, 2, 2, 2, 2, 2, 2, 2, 2, 2, 2, 2, 2, 2, 2, 2, 3, 3, 3, 3, 3, 3, 3, 3, 3, 3, 3, 3, 3, 3, 3, 3, 3, 3, 3, 3, 3, 3, 3, 3, 3, 3, 3, 3, 3, 3, 3, 3];
Elect_vehicle = [[70, 100, 30], [70, 100, 30], [70, 100, 30], [70, 100, 30], [70, 100, 30], [70, 100, 30], [70, 100, 30], [70, 100, 30], [70, 100, 30], [70, 100, 30], [70, 100, 30], [70, 100, 30], [70, 100, 30], [70, 100, 30], [70, 100, 30], [70, 100, 30], [70, 100, 30], [70, 100, 30], [70, 100, 30], [70, 100, 30], [70, 100, 30], [70, 100, 30], [70, 100, 30], [70, 100, 30], [70, 100, 30], [70, 100, 30], [70, 100, 30], [70, 100, 30], [70, 100, 30], [70, 100, 30], [70, 100, 30], [70, 100, 30], [80, 120, 30], [80, 120, 30], [80, 120, 30], [80, 120, 30], [80, 120, 30], [80, 120, 30], [80, 120, 30], [80, 120, 30], [80, 120, 30], [80, 120, 30], [80, 120, 30], [80, 120, 30], [80, 120, 30], [80, 120, 30], [80, 120, 30], [80, 120, 30], [80, 120, 30], [80, 120, 30], [80, 120, 30], [80, 120, 30], [80, 120, 30], [80, 120, 30], [80, 120, 30], [80, 120, 30], [80, 120, 30], [80, 120, 30], [80, 120, 30], [80, 120, 30], [80, 120, 30], [80, 120, 30], [80, 120, 30], [80, 120, 30], [90, 140, 40], [90, 140, 40], [90, 140, 40], [90, 140, 40], [90, 140, 40], [90, 140, 40], [90, 140, 40], [90, 140, 40], [90, 140, 40], [90, 140, 40], [90, 140, 40], [90, 140, 40], [90, 140, 40], [90, 140, 40], [90, 140, 40], [90, 140, 40], [90, 140, 40], [90, 140, 40], [90, 140, 40], [90, 140, 40], [90, 140, 40], [90, 140, 40], [90, 140, 40], [90, 140, 40], [90, 140, 40], [90, 140, 40], [90, 140, 40], [90, 140, 40], [90, 140, 40], [90, 140, 40], [90, 140, 40], [90, 140, 40]];